pr/lpsolve-precompiler/example/params/7
V1 = 10000
V2 = 100

C1 = 1
C2 = 2
C3 = 2

A1 = 3
A2 = 5
A3 = 1
A4 = 2

M = 10000000

-----

